experiment/data/hgs-res/Vrp-Set-Golden-n481/Vrp-Set-Golden-n481-hgs/0.hgs1.tour
Route #1: 81 122 170 226 290 362 363 443 442 441 361 289 225 169 121 80
Route #2: 7 8
Route #3: 26 25 49 48 24 23
Route #4: 124 174 173 231 230 294 295 369 368 367 366 365 293 229 228 172 123
Route #5: 175 232 298 297 296 370 452 451 450 449 448 447 446 445 444 364 292 291 227 171
Route #6: 51 50 82 83 125 126 84 85 52
Route #7: 127 176 234 233 299 300 374 373 372 371 453 454 455 456 457 375 301 235 177
Route #8: 53 87 129 179 237 303 377 378 304 238 180 130 88
Route #9: 86 128 178 236 302 376 458 459 460 461 379 305 239 181 131 89
Route #10: 9 27 28 10
Route #11: 90 132 183 241 307 381 382 383 309 308 242 184 134 133 91
Route #12: 182 240 306 380 462 463 464 465 466 384 385 467 468 386 312 313 314 315 247 188
Route #13: 54 55 56 57 58 30 29
Route #14: 92 135 185 243 244 310 311 245 246 186 187 136 137 93
Route #15: 249 317 393 477 476 475 474 473 472 471 470 469 387 388 389 390 391 392 316 248 189
Route #16: 11 31 32 12
Route #17: 59 95 139 191 251 319 320 252 192 140 96 60
Route #18: 97 141 193 253 321 397 480 396 395 479 478 394 318 250 190 138 94
Route #19: 14 34 63 99 98 61 33 13
Route #20: 142 194 254 322 398 399 400 401 402 403 327 326 325 324 323 255 195 143 62
Route #21: 36 65 101 145 197 257 256 196 144 100 64 35
Route #22: 1 2 3
Route #23: 146 198 258 259 260 328 404 405 406 407 408 409 410 411 412 334 264 265 203 150
Route #24: 103 149 202 201 263 333 332 331 330 329 261 262 200 199 147 148 102
Route #25: 15 37 66 104 67 68 38 16
Route #26: 105 151 205 204 266 267 337 336 335 413 414 415 416 338 268 206 152 106
Route #27: 4 18 40 39 17
Route #28: 72 156 210 272 342 343 421 420 419 418 417 339 269 207 153 107 69
Route #29: 41 71 109 155 209 271 341 340 270 208 154 108 70
Route #30: 110 157 211 273 274 344 422 423 424 425 426 348 347 346 345 275 213 212 158
Route #31: 45 44 43 42 20 19
Route #32: 73 112 159 160 216 215 279 351 352 280 281 217 161 113 74
Route #33: 111 214 276 277 278 350 349 427 428 429 430 431 432 433 353 282 218 162 114
Route #34: 5 21 22 6
Route #35: 75 115 163 219 283 355 354 434 435 436 356 284 220 164 116 76
Route #36: 77 117 165 221 285 357 437 438 358 359 439 440 360 288 224 168 120
Route #37: 46 78 118 166 222 286 287 223 167 119 79 47
Cost 1619.62
